(set-info :smt-lib-version 2.6)
(set-logic QF_UFBV)
(set-info :source |
Generated by: Certora
Generated on: 2024-01-16
Generator: The Certora Prover
Application: Web3 security
|)
(set-info :license "https://creativecommons.org/licenses/by/4.0/")
(set-info :category "industrial")
(set-info :status unknown)
(declare-fun x252 () (_ BitVec 256))
(declare-fun x300 () Bool)
(declare-fun x403 () Bool)
(declare-fun x2 () (_ BitVec 256))
(declare-fun x39 () (_ BitVec 256))
(declare-fun x218 () Bool)
(declare-fun x237 () Bool)
(declare-fun x44 () (_ BitVec 256))
(declare-fun x166 ((_ BitVec 256)) (_ BitVec 256))
(declare-fun x334 () (_ BitVec 256))
(declare-fun x24 () (_ BitVec 256))
(declare-fun x59 () Bool)
(declare-fun x112 () (_ BitVec 256))
(declare-fun x274 () (_ BitVec 256))
(declare-fun x303 () (_ BitVec 256))
(declare-fun x85 () (_ BitVec 256))
(declare-fun x385 () (_ BitVec 256))
(declare-fun x7 () (_ BitVec 256))
(declare-fun x304 () Bool)
(declare-fun x52 () Bool)
(declare-fun x225 ((_ BitVec 256) (_ BitVec 256)) (_ BitVec 256))
(declare-fun x367 () (_ BitVec 256))
(declare-fun x374 () Bool)
(declare-fun x186 () (_ BitVec 256))
(declare-fun x291 () (_ BitVec 256))
(declare-fun x226 () (_ BitVec 256))
(declare-fun x320 () Bool)
(declare-fun x324 () (_ BitVec 256))
(declare-fun x371 () Bool)
(declare-fun x315 () (_ BitVec 256))
(declare-fun x176 () Bool)
(declare-fun x5 () (_ BitVec 256))
(declare-fun x29 () (_ BitVec 256))
(declare-fun x289 () (_ BitVec 256))
(declare-fun x14 () Bool)
(declare-fun x340 () (_ BitVec 256))
(declare-fun x358 () (_ BitVec 256))
(declare-fun x128 () (_ BitVec 256))
(declare-fun x250 () Bool)
(declare-fun x331 () (_ BitVec 256))
(declare-fun x375 () Bool)
(declare-fun x349 () (_ BitVec 256))
(declare-fun x31 () (_ BitVec 256))
(declare-fun x239 () Bool)
(declare-fun x241 () (_ BitVec 256))
(declare-fun x117 () (_ BitVec 256))
(declare-fun x177 () (_ BitVec 256))
(declare-fun x224 () (_ BitVec 256))
(declare-fun x332 () Bool)
(declare-fun x123 () (_ BitVec 256))
(declare-fun x25 () Bool)
(declare-fun x282 () Bool)
(declare-fun x160 () Bool)
(declare-fun x351 () (_ BitVec 256))
(declare-fun x343 () (_ BitVec 256))
(declare-fun x350 () (_ BitVec 256))
(declare-fun x197 () (_ BitVec 256))
(declare-fun x255 () (_ BitVec 256))
(declare-fun x119 () Bool)
(declare-fun x88 () (_ BitVec 256))
(declare-fun x200 () (_ BitVec 256))
(declare-fun x72 () (_ BitVec 256))
(declare-fun x46 () (_ BitVec 256))
(declare-fun x206 () Bool)
(declare-fun x54 () (_ BitVec 256))
(declare-fun x172 () (_ BitVec 256))
(declare-fun x124 () Bool)
(declare-fun x307 ((_ BitVec 256) (_ BitVec 256) (_ BitVec 256)) (_ BitVec 256))
(declare-fun x285 () Bool)
(declare-fun x337 () (_ BitVec 256))
(declare-fun x77 () Bool)
(declare-fun x208 () (_ BitVec 256))
(declare-fun x157 () (_ BitVec 256))
(declare-fun x168 () Bool)
(declare-fun x319 () Bool)
(declare-fun x11 () Bool)
(declare-fun x118 () (_ BitVec 256))
(declare-fun x254 () (_ BitVec 256))
(declare-fun x130 () (_ BitVec 256))
(declare-fun x89 () (_ BitVec 256))
(declare-fun x137 () (_ BitVec 256))
(declare-fun x321 () Bool)
(declare-fun x170 () Bool)
(declare-fun x280 () (_ BitVec 256))
(declare-fun x55 () (_ BitVec 256))
(declare-fun x336 () (_ BitVec 256))
(declare-fun x400 () (_ BitVec 256))
(declare-fun x142 () Bool)
(declare-fun x242 () Bool)
(declare-fun x84 () (_ BitVec 256))
(declare-fun x381 () (_ BitVec 256))
(declare-fun x107 () (_ BitVec 256))
(declare-fun x248 () (_ BitVec 256))
(declare-fun x182 () (_ BitVec 256))
(declare-fun x357 () (_ BitVec 256))
(declare-fun x57 () Bool)
(declare-fun x74 () Bool)
(declare-fun x148 () (_ BitVec 256))
(declare-fun x69 ((_ BitVec 256)) (_ BitVec 256))
(declare-fun x175 () (_ BitVec 256))
(declare-fun x53 () (_ BitVec 256))
(declare-fun x37 () (_ BitVec 256))
(declare-fun x253 () Bool)
(declare-fun x373 () Bool)
(declare-fun x338 ((_ BitVec 256)) (_ BitVec 256))
(declare-fun x329 () (_ BitVec 256))
(declare-fun x4 () (_ BitVec 256))
(declare-fun x48 () (_ BitVec 256))
(declare-fun x333 ((_ BitVec 256)) (_ BitVec 256))
(declare-fun x236 () (_ BitVec 256))
(declare-fun x113 () Bool)
(declare-fun x314 () Bool)
(declare-fun x64 () (_ BitVec 256))
(declare-fun x145 () (_ BitVec 256))
(declare-fun x131 ((_ BitVec 256)) (_ BitVec 256))
(declare-fun x3 ((_ BitVec 256)) (_ BitVec 256))
(declare-fun x65 () (_ BitVec 256))
(declare-fun x161 () Bool)
(declare-fun x26 () (_ BitVec 256))
(declare-fun x201 () (_ BitVec 256))
(declare-fun x261 () (_ BitVec 256))
(declare-fun x97 () (_ BitVec 256))
(declare-fun x214 () (_ BitVec 256))
(declare-fun x352 () (_ BitVec 256))
(declare-fun x296 () Bool)
(declare-fun x23 () Bool)
(declare-fun x126 () Bool)
(declare-fun x32 () (_ BitVec 256))
(declare-fun x342 () (_ BitVec 256))
(declare-fun x185 () Bool)
(declare-fun x60 () (_ BitVec 256))
(declare-fun x62 () Bool)
(declare-fun x147 () (_ BitVec 256))
(declare-fun x223 () (_ BitVec 256))
(declare-fun x70 () (_ BitVec 256))
(declare-fun x15 ((_ BitVec 256) (_ BitVec 256)) (_ BitVec 256))
(declare-fun x305 () Bool)
(declare-fun x129 () (_ BitVec 256))
(declare-fun x293 () Bool)
(declare-fun x278 () Bool)
(declare-fun x325 () Bool)
(declare-fun x193 () (_ BitVec 256))
(declare-fun x125 () (_ BitVec 256))
(declare-fun x81 () (_ BitVec 256))
(declare-fun x10 () (_ BitVec 256))
(declare-fun x156 () (_ BitVec 256))
(declare-fun x302 () Bool)
(declare-fun x292 () Bool)
(declare-fun x115 () (_ BitVec 256))
(declare-fun x318 () (_ BitVec 256))
(declare-fun x163 () (_ BitVec 256))
(declare-fun x233 ((_ BitVec 256)) Bool)
(declare-fun x91 () (_ BitVec 256))
(declare-fun x396 () (_ BitVec 256))
(declare-fun x283 () Bool)
(declare-fun x273 () Bool)
(declare-fun x132 () Bool)
(declare-fun x154 () Bool)
(declare-fun x232 () (_ BitVec 256))
(declare-fun x174 () (_ BitVec 256))
(declare-fun x96 () (_ BitVec 256))
(declare-fun x1 () (_ BitVec 256))
(declare-fun x116 () (_ BitVec 256))
(declare-fun x212 () (_ BitVec 256))
(declare-fun x198 () (_ BitVec 256))
(declare-fun x12 () Bool)
(declare-fun x104 () Bool)
(declare-fun x355 () Bool)
(declare-fun x207 () (_ BitVec 256))
(declare-fun x56 () Bool)
(declare-fun x152 () (_ BitVec 256))
(declare-fun x49 () (_ BitVec 256))
(declare-fun x92 () Bool)
(declare-fun x50 ((_ BitVec 256)) (_ BitVec 256))
(declare-fun x187 () Bool)
(declare-fun x348 () (_ BitVec 256))
(declare-fun x79 () (_ BitVec 256))
(declare-fun x47 () Bool)
(declare-fun x71 () (_ BitVec 256))
(declare-fun x290 () Bool)
(declare-fun x99 () (_ BitVec 256))
(declare-fun x43 () Bool)
(declare-fun x133 () Bool)
(declare-fun x268 () Bool)
(declare-fun x36 ((_ BitVec 256)) (_ BitVec 256))
(declare-fun x110 () Bool)
(declare-fun x264 () Bool)
(declare-fun x317 ((_ BitVec 256) (_ BitVec 256)) (_ BitVec 256))
(declare-fun x27 () Bool)
(declare-fun x308 () Bool)
(declare-fun x389 () Bool)
(declare-fun x402 () Bool)
(declare-fun x309 () Bool)
(declare-fun x33 () Bool)
(declare-fun x151 () Bool)
(declare-fun x210 () (_ BitVec 256))
(declare-fun x327 () (_ BitVec 256))
(declare-fun x78 ((_ BitVec 256)) (_ BitVec 256))
(declare-fun x269 ((_ BitVec 256)) (_ BitVec 256))
(declare-fun x211 () (_ BitVec 256))
(declare-fun x297 () (_ BitVec 256))
(declare-fun x270 () (_ BitVec 256))
(declare-fun x21 () Bool)
(declare-fun x345 () (_ BitVec 256))
(declare-fun x386 () Bool)
(declare-fun x215 () (_ BitVec 256))
(declare-fun x383 () Bool)
(declare-fun x298 () (_ BitVec 256))
(declare-fun x234 ((_ BitVec 256) (_ BitVec 256)) (_ BitVec 256))
(declare-fun x221 () (_ BitVec 256))
(declare-fun x66 () Bool)
(declare-fun x189 () Bool)
(declare-fun x169 () (_ BitVec 256))
(declare-fun x178 () (_ BitVec 256))
(declare-fun x199 () Bool)
(declare-fun x393 () (_ BitVec 256))
(declare-fun x394 () (_ BitVec 256))
(declare-fun x42 () (_ BitVec 256))
(declare-fun x146 () (_ BitVec 256))
(declare-fun x238 () Bool)
(declare-fun x19 () Bool)
(declare-fun x191 () Bool)
(declare-fun x262 () Bool)
(declare-fun x347 () (_ BitVec 256))
(declare-fun x299 () (_ BitVec 256))
(declare-fun x6 () Bool)
(declare-fun x8 ((_ BitVec 256) (_ BitVec 256)) (_ BitVec 256))
(declare-fun x105 () Bool)
(declare-fun x281 () Bool)
(declare-fun x144 () Bool)
(declare-fun x376 () Bool)
(declare-fun x90 () (_ BitVec 256))
(declare-fun x384 () (_ BitVec 256))
(declare-fun x326 () (_ BitVec 256))
(declare-fun x378 ((_ BitVec 256)) (_ BitVec 256))
(declare-fun x80 () Bool)
(declare-fun x266 () (_ BitVec 256))
(declare-fun x195 () (_ BitVec 256))
(declare-fun x209 () (_ BitVec 256))
(declare-fun x101 () Bool)
(declare-fun x294 () (_ BitVec 256))
(declare-fun x183 () Bool)
(declare-fun x87 () (_ BitVec 256))
(declare-fun x369 () Bool)
(declare-fun x82 () Bool)
(declare-fun x356 () (_ BitVec 256))
(declare-fun x235 () (_ BitVec 256))
(declare-fun x204 () (_ BitVec 256))
(declare-fun x13 () (_ BitVec 256))
(declare-fun x301 () Bool)
(declare-fun x86 () (_ BitVec 256))
(declare-fun x122 ((_ BitVec 256)) (_ BitVec 256))
(declare-fun x141 () Bool)
(declare-fun x41 () Bool)
(declare-fun x136 () Bool)
(declare-fun x249 () (_ BitVec 256))
(declare-fun x68 () (_ BitVec 256))
(declare-fun x108 () Bool)
(declare-fun x363 () (_ BitVec 256))
(declare-fun x380 () Bool)
(declare-fun x111 () (_ BitVec 256))
(declare-fun x246 () (_ BitVec 256))
(declare-fun x256 () (_ BitVec 256))
(declare-fun x164 () (_ BitVec 256))
(declare-fun x40 () Bool)
(declare-fun x213 () Bool)
(declare-fun x392 () Bool)
(declare-fun x58 () (_ BitVec 256))
(declare-fun x167 () Bool)
(declare-fun x63 () (_ BitVec 256))
(declare-fun x190 () Bool)
(declare-fun x205 () Bool)
(declare-fun x377 () Bool)
(declare-fun x272 () Bool)
(declare-fun x344 () (_ BitVec 256))
(declare-fun x203 () Bool)
(declare-fun x38 () (_ BitVec 256))
(declare-fun x150 () (_ BitVec 256))
(declare-fun x93 () Bool)
(declare-fun x362 () Bool)
(declare-fun x395 () (_ BitVec 256))
(declare-fun x139 () (_ BitVec 256))
(declare-fun x330 () (_ BitVec 256))
(declare-fun x9 () Bool)
(declare-fun x51 () Bool)
(declare-fun x138 () (_ BitVec 256))
(declare-fun x165 () Bool)
(declare-fun x247 () Bool)
(declare-fun x220 () Bool)
(declare-fun x346 () (_ BitVec 256))
(declare-fun x229 () Bool)
(declare-fun x188 () (_ BitVec 256))
(declare-fun x277 () (_ BitVec 256))
(declare-fun x28 () (_ BitVec 256))
(declare-fun x359 () (_ BitVec 256))
(declare-fun x271 () Bool)
(declare-fun x295 () (_ BitVec 256))
(declare-fun x184 () (_ BitVec 256))
(declare-fun x153 () (_ BitVec 256))
(declare-fun x335 () Bool)
(declare-fun x83 () (_ BitVec 256))
(declare-fun x173 () Bool)
(declare-fun x391 () Bool)
(declare-fun x339 () (_ BitVec 256))
(declare-fun x30 () Bool)
(declare-fun x194 () (_ BitVec 256))
(declare-fun x230 () (_ BitVec 256))
(declare-fun x258 () (_ BitVec 256))
(declare-fun x100 () (_ BitVec 256))
(declare-fun x216 () (_ BitVec 256))
(declare-fun x328 () (_ BitVec 256))
(declare-fun x61 () (_ BitVec 256))
(declare-fun x263 () (_ BitVec 256))
(declare-fun x259 () Bool)
(declare-fun x67 () (_ BitVec 256))
(declare-fun x354 () (_ BitVec 256))
(declare-fun x95 () (_ BitVec 256))
(declare-fun x102 () Bool)
(declare-fun x180 () (_ BitVec 256))
(declare-fun x120 () Bool)
(declare-fun x103 () Bool)
(declare-fun x18 () (_ BitVec 256))
(declare-fun x323 () Bool)
(declare-fun x192 () (_ BitVec 256))
(declare-fun x76 () (_ BitVec 256))
(declare-fun x306 () (_ BitVec 256))
(declare-fun x143 ((_ BitVec 256)) (_ BitVec 256))
(declare-fun x257 () (_ BitVec 256))
(declare-fun x245 () (_ BitVec 256))
(declare-fun x149 () Bool)
(declare-fun x22 () (_ BitVec 256))
(declare-fun x279 () (_ BitVec 256))
(define-fun x286 ((x265 (_ BitVec 256)) (x75 (_ BitVec 256))) Bool (= x265 (bvudiv (bvmul x75 x265) x75)))
(define-fun x397 ((x265 (_ BitVec 256)) (x75 (_ BitVec 256))) Bool (= x265 (bvsdiv (bvmul x265 x75) x75)))
(define-fun x121 ((x265 (_ BitVec 256)) (x75 (_ BitVec 256))) Bool (= x265 (bvsdiv (bvmul x75 x265) x75)))
(define-fun x275 ((x260 (_ BitVec 256))) (_ BitVec 256) (_ bv0 256))
(define-fun x127 ((x260 (_ BitVec 256))) (_ BitVec 256) (_ bv0 256))
(define-fun x181 ((x260 (_ BitVec 256))) (_ BitVec 256) (_ bv0 256))
(define-fun x244 ((x260 (_ BitVec 256))) (_ BitVec 256) (_ bv0 256))
(define-fun x114 ((x260 (_ BitVec 256))) (_ BitVec 256) (_ bv0 256))
(define-fun x387 ((x260 (_ BitVec 256))) (_ BitVec 256) (_ bv0 256))
(define-fun x382 ((x260 (_ BitVec 256))) (_ BitVec 256) (_ bv0 256))
(define-fun x390 ((x260 (_ BitVec 256))) (_ BitVec 256) (_ bv0 256))
(define-fun x267 ((x260 (_ BitVec 256))) (_ BitVec 256) (ite (= x260 (_ bv60 256)) x328 (x378 x260)))
(define-fun x310 ((x260 (_ BitVec 256))) (_ BitVec 256) (ite (= x260 (_ bv61 256)) x64 (x267 x260)))
(define-fun x179 ((x260 (_ BitVec 256))) (_ BitVec 256) (ite (= x260 (_ bv62 256)) x384 (x310 x260)))
(define-fun x227 ((x260 (_ BitVec 256))) (_ BitVec 256) (ite (bvugt x100 x260) (x333 x260) (_ bv0 256)))
(define-fun x372 ((x260 (_ BitVec 256))) (_ BitVec 256) (ite (and (bvule (_ bv0 256) x260) (bvugt x100 x260)) (x143 x260) (x227 x260)))
(define-fun x370 ((x260 (_ BitVec 256))) (_ BitVec 256) (ite (= x260 x148) x348 (x131 x260)))
(define-fun x94 ((x260 (_ BitVec 256))) (_ BitVec 256) (ite (= (_ bv128 256) x260) x137 (x275 x260)))
(define-fun x159 ((x260 (_ BitVec 256))) (_ BitVec 256) (ite (= x260 x29) x393 (x127 x260)))
(define-fun x34 ((x260 (_ BitVec 256))) (_ BitVec 256) (ite (= x260 x349) x139 (x159 x260)))
(define-fun x45 ((x260 (_ BitVec 256))) (_ BitVec 256) (ite (= x118 x260) x277 (x181 x260)))
(define-fun x140 ((x260 (_ BitVec 256))) (_ BitVec 256) (ite (= x396 x260) x184 (x34 x260)))
(define-fun x219 ((x260 (_ BitVec 256))) (_ BitVec 256) (ite (= x260 x18) x340 (x387 x260)))
(define-fun x322 ((x260 (_ BitVec 256))) (_ BitVec 256) (ite (= x182 x260) x86 (x219 x260)))
(define-fun x312 ((x260 (_ BitVec 256))) (_ BitVec 256) (ite (= x55 x260) x153 (x322 x260)))
(define-fun x398 ((x260 (_ BitVec 256)) (x251 (_ BitVec 256))) (_ BitVec 256) (ite (and (= x393 x251) (= x260 x139)) x125 (x8 x260 x251)))
(define-fun x134 ((x260 (_ BitVec 256)) (x251 (_ BitVec 256))) (_ BitVec 256) (ite x103 (x8 x260 x251) (x398 x260 x251)))
(define-fun x316 ((x260 (_ BitVec 256)) (x251 (_ BitVec 256))) (_ BitVec 256) (ite x6 (x134 x260 x251) (x8 x260 x251)))
(define-fun x313 ((x260 (_ BitVec 256)) (x251 (_ BitVec 256))) (_ BitVec 256) (ite x305 (x8 x260 x251) (x316 x260 x251)))
(define-fun x276 ((x260 (_ BitVec 256))) (_ BitVec 256) (ite (= x186 x260) x60 (x312 x260)))
(define-fun x243 ((x260 (_ BitVec 256))) (_ BitVec 256) (ite x323 (x312 x260) (ite x185 (x322 x260) (ite x273 (x219 x260) (ite x392 (x387 x260) (x276 x260))))))
(define-fun x155 ((x260 (_ BitVec 256))) (_ BitVec 256) (ite (= x260 x76) (_ bv0 256) (x243 x260)))
(define-fun x388 ((x260 (_ BitVec 256))) (_ BitVec 256) (ite x213 (x243 x260) (x155 x260)))
(define-fun x311 ((x260 (_ BitVec 256))) (_ BitVec 256) (ite (= x63 x260) x297 (x179 x260)))
(define-fun x98 ((x260 (_ BitVec 256))) (_ BitVec 256) (ite (= x139 x260) x297 (x36 x260)))
(define-fun x158 ((x260 (_ BitVec 256))) (_ BitVec 256) (ite (= x260 x212) x393 (x311 x260)))
(define-fun x35 ((x241 (_ BitVec 256))) Bool (or (= (x50 (x3 x241)) (bvadd x241 (_ bv1 256))) (not (and (bvule x241 (_ bv115792089237316195423570985008687907853269984665640564039457584007913129639935 256)) (bvule (_ bv0 256) x241))) (not (and (bvuge x241 (_ bv0 256)) (bvugt x88 x241)))))
(define-fun x288 ((x226 (_ BitVec 256))) Bool (or (not (and (bvule x226 (_ bv115792089237316195423570985008687907853269984665640564039457584007913129639935 256)) (bvuge x226 (_ bv0 256)))) (and (bvule (x50 x226) x88) (and (= (x3 (bvadd (bvneg (_ bv1 256)) (x50 x226))) x226) (bvule (_ bv1 256) (x50 x226)))) (= (x50 x226) (_ bv0 256))))
(define-fun x20 ((x261 (_ BitVec 256)) (x334 (_ BitVec 256))) Bool (or (or (not (and (bvule (_ bv0 256) x334) (bvult x334 (x36 x261)))) (not (and (bvuge (_ bv115792089237316195423570985008687907853269984665640564039457584007913129639935 256) x334) (bvule (_ bv0 256) x334))) (= (x8 x261 (x15 x261 x334)) (bvadd (_ bv1 256) x334))) (not (and (bvule (_ bv0 256) x261) (bvuge (_ bv1461501637330902918203684832716283019655932542975 256) x261)))))
(define-fun x73 ((x129 (_ BitVec 256)) (x315 (_ BitVec 256))) Bool (or (or (= (x8 x129 x315) (_ bv0 256)) (and (and (bvuge (x8 x129 x315) (_ bv1 256)) (= x315 (x15 x129 (bvadd (bvneg (_ bv1 256)) (x8 x129 x315))))) (bvuge (x36 x129) (x8 x129 x315))) (not (and (bvule x315 (_ bv115792089237316195423570985008687907853269984665640564039457584007913129639935 256)) (bvule (_ bv0 256) x315)))) (not (and (bvuge (_ bv1461501637330902918203684832716283019655932542975 256) x129) (bvuge x129 (_ bv0 256))))))
(define-fun x401 ((x246 (_ BitVec 256)) (x163 (_ BitVec 256))) Bool (or (not (and (bvuge (_ bv1461501637330902918203684832716283019655932542975 256) x246) (bvule (_ bv0 256) x246))) (or (not (and (bvugt (x122 x246) x163) (bvule (_ bv0 256) x163))) (= (x225 x246 (x317 x246 x163)) (bvadd x163 (_ bv1 256))) (not (and (bvuge (_ bv115792089237316195423570985008687907853269984665640564039457584007913129639935 256) x163) (bvuge x163 (_ bv0 256)))))))
(define-fun x284 ((x178 (_ BitVec 256)) (x46 (_ BitVec 256))) Bool (or (not (and (bvuge x178 (_ bv0 256)) (bvule x178 (_ bv1461501637330902918203684832716283019655932542975 256)))) (or (= (_ bv0 256) (x225 x178 x46)) (not (and (bvuge x46 (_ bv0 256)) (bvuge (_ bv115792089237316195423570985008687907853269984665640564039457584007913129639935 256) x46))) (and (bvuge (x122 x178) (x225 x178 x46)) (and (bvuge (x225 x178 x46) (_ bv1 256)) (= x46 (x317 x178 (bvadd (x225 x178 x46) (bvneg (_ bv1 256))))))))))
(define-fun x202 ((x10 (_ BitVec 256)) (x279 (_ BitVec 256))) Bool (or (or (not (or (not (= (x8 x10 x279) (_ bv0 256))) (not (= (x225 x10 x279) (_ bv0 256))))) (not (and (bvule (_ bv0 256) x279) (bvuge (_ bv115792089237316195423570985008687907853269984665640564039457584007913129639935 256) x279))) (not (= (x50 x279) (_ bv0 256)))) (not (and (bvule (_ bv0 256) x10) (bvuge (_ bv1461501637330902918203684832716283019655932542975 256) x10)))))
(define-fun x17 ((x68 (_ BitVec 256))) Bool (or (bvult (x36 x68) (_ bv340282366920938463463374607431768211455 256)) (not (and (bvuge (_ bv1461501637330902918203684832716283019655932542975 256) x68) (bvuge x68 (_ bv0 256))))))
(define-fun x106 ((x68 (_ BitVec 256))) Bool (or (bvugt (_ bv340282366920938463463374607431768211455 256) (x98 x68)) (not (and (bvule (_ bv0 256) x68) (bvule x68 (_ bv1461501637330902918203684832716283019655932542975 256))))))
(define-fun x240 ((x354 (_ BitVec 256))) Bool (or (bvult (x122 x354) (_ bv340282366920938463463374607431768211455 256)) (not (and (bvule (_ bv0 256) x354) (bvuge (_ bv1461501637330902918203684832716283019655932542975 256) x354)))))
(define-fun x341 () Bool (and (x35 (bvadd (x50 x393) (bvneg (_ bv1 256)))) (x35 (bvadd (x50 (x15 x139 (_ bv0 256))) (bvneg (_ bv1 256)))) (x35 (bvadd (x50 x87) (bvneg (_ bv1 256))))))
(define-fun x364 () Bool x341)
(define-fun x217 () Bool (and (x288 x87) (x288 x393) (x288 (x15 x139 (_ bv0 256)))))
(define-fun x135 () Bool x217)
(define-fun x399 () Bool (and (x20 x42 (bvadd (bvneg (_ bv1 256)) (x8 x42 x87))) (x20 x139 (bvadd (bvneg (_ bv1 256)) (x8 x139 x393))) (x20 x139 (_ bv0 256))))
(define-fun x196 () Bool x399)
(define-fun x162 () Bool (and (x73 x139 x393) (x73 x42 x87) (x73 x139 (x15 x139 (_ bv0 256)))))
(define-fun x287 () Bool x162)
(define-fun x365 () Bool (and (x401 x139 (bvadd (bvneg (_ bv1 256)) (x225 x139 x393))) (x401 x42 (bvadd (x225 x42 x87) (bvneg (_ bv1 256)))) (x401 x139 (bvadd (x225 x139 (x15 x139 (_ bv0 256))) (bvneg (_ bv1 256))))))
(define-fun x353 () Bool x365)
(define-fun x109 () Bool (and (x284 x139 x393) (x284 x139 (x15 x139 (_ bv0 256))) (x284 x42 x87)))
(define-fun x231 () Bool x109)
(define-fun x366 () Bool (and (x202 x139 (x15 x139 (_ bv0 256))) (x202 x139 x393) (x202 x42 x87)))
(define-fun x360 () Bool (and (x202 x139 x393) (x202 x139 (x15 x139 (_ bv0 256))) (x202 x42 x87)))
(define-fun x16 () Bool (and x360 x366))
(define-fun x222 () Bool (and (x17 x139) (x17 x42)))
(define-fun x361 () Bool x222)
(define-fun x379 () Bool (and (x106 x139) (x106 x42)))
(define-fun x171 () Bool x379)
(define-fun x228 () Bool (and (x240 x42) (x240 x139)))
(define-fun x368 () Bool x228)
(assert (= (x338 (x307 (_ bv64 256) x393 (_ bv53 256))) (x307 (_ bv64 256) x393 (_ bv53 256))))
(assert (=> (bvuge (_ bv10000 256) x112) (= (_ bv0 256) (x338 x112))))
(assert (= (x338 (x234 (_ bv32 256) x63)) (x234 (_ bv32 256) x63)))
(assert (= (or x323 x185 x189 x392 x273) x11))
(assert (= x389 (=> (and (and (= x139 x117) (= x139 x337) (= x297 x367) (= x211 (x234 (_ bv32 256) x63)) (bvuge x164 (_ bv0 256)) (= x149 (= x13 x164)) (= (x36 x139) x164) (= (bvadd (_ bv1 256) x13) x297) (bvule x164 (_ bv115792089237316195423570985008687907853269984665640564039457584007913129639935 256)) (= (x179 x63) x13) (= (bvadd x211 x13) x212) x149) (and (= x146 x139) (= x125 x7) x391 (= x263 x393) (bvule x107 (_ bv115792089237316195423570985008687907853269984665640564039457584007913129639935 256)) (= (_ bv1 256) x280) (= x318 x139) (= x72 x13) (= x180 x139) (= (x98 x139) x107) (= x125 (x158 x63)) (= x391 (= x125 x107)) (bvuge x107 (_ bv0 256)))) x229)))
(assert (= (x338 (_ bv3715641950 256)) (_ bv0 256)))
(assert (bvugt (x234 (_ bv32 256) x63) (_ bv10000 256)))
(assert (x233 (_ bv4294967295 256)))
(assert (= x242 (=> (and (or (and x264 (= x336 (_ bv0 256))) (and (not x264) (and (= x245 (bvadd x31 (_ bv5 256))) (= x346 (_ bv0 256)) (= x346 (x179 x245))))) (and (= (bvult (_ bv0 256) x336) x264) (= (x307 (_ bv64 256) x393 (_ bv54 256)) x31))) x132)))
(assert (= (x269 (x307 (_ bv64 256) x139 (_ bv55 256))) (_ bv55 256)))
(assert (x233 (_ bv3264840248 256)))
(assert (= (=> (and (= (x94 (_ bv128 256)) x274) (bvuge x274 (_ bv1 256)) (= x403 (not (bvugt x137 (_ bv1 256))))) (and (=> (= x356 x208) x290) x403)) x205))
(assert (bvult (_ bv10000 256) (x307 (_ bv64 256) x139 (_ bv55 256))))
(assert (bvugt (x307 (_ bv64 256) x393 x327) (_ bv10000 256)))
(assert (= (and x187 (not x237)) x220))
(assert (= true x66))
(assert (= (=> (and (= x51 (not (bvugt x347 (_ bv1 256)))) (= (bvadd x223 (_ bv32 256)) x324)) (and (=> (and (= x299 (_ bv192 256)) (= (_ bv1 256) x71) (= x324 x204)) x190) x51)) x374))
(assert (= (x338 (x307 (_ bv64 256) x209 (_ bv54 256))) (x307 (_ bv64 256) x209 (_ bv54 256))))
(assert (= (_ bv0 256) (x338 (_ bv1461501637330902918203684832716283019655932542975 256))))
(assert (x233 (_ bv1461501637330902918203684832716283019655932542975 256)))
(assert (= x293 (and (not x21) x56)))
(assert (=> (bvuge (_ bv10000 256) x328) (= (_ bv0 256) (x338 x328))))
(assert (= (x69 (x234 (_ bv32 256) x63)) (_ bv32 256)))
(assert (= (_ bv54 256) (x269 (x307 (_ bv64 256) x393 (_ bv54 256)))))
(assert (= (x338 x31) (x338 (bvadd x31 (_ bv5 256)))))
(assert (not (x233 (x234 (_ bv32 256) x63))))
(assert (= x56 (or x103 x47)))
(assert (= x229 (=> (and (= (= (_ bv0 256) x280) x21) (or (not x21) x21)) x332)))
(assert (x233 (_ bv57896044618658097711785492504343953926634992332820282019728792003956564819967 256)))
(assert (= (and x92 (not x264)) x126))
(assert (= (x338 (_ bv100173508806227604190404147538613040204472932894600276687804156538436924211200 256)) (_ bv0 256)))
(assert (x233 (_ bv100173508806227604190404147538613040204472932894600276687804156538436924211200 256)))
(assert (not (x233 (x307 (_ bv64 256) x139 (_ bv55 256)))))
(assert (x233 (_ bv26959946667150639794667015087019630673637144422540572481103610249215 256)))
(assert (=> (bvuge (_ bv10000 256) x209) (= (_ bv0 256) (x338 x209))))
(assert (= (and x173 x199) x77))
(assert (not (x233 (x307 (_ bv64 256) x393 (_ bv54 256)))))
(assert (= (x338 x85) (x338 (bvadd x85 (_ bv5 256)))))
(assert (= (and x56 x21) x259))
(assert (= x314 (or x369 (and (not x281) x108))))
(assert (= (and x238 (not x335)) x323))
(assert (= x238 (and x12 x160)))
(assert (= x296 (and x77 x319)))
(assert (= (=> (and (= (x8 x139 x393) x58) (= (_ bv96 256) x194) (= x63 (x307 (_ bv64 256) x139 (_ bv55 256))) (= x385 (_ bv96 256)) (= (bvadd x63 (_ bv1 256)) x327) (= (x179 x342) x331) (= x139 x289) (= x102 (not (= (_ bv0 256) x331))) (bvuge x58 (_ bv0 256)) (= (x307 (_ bv64 256) x393 x327) x342) (= (_ bv96 256) x358) x30 (bvuge (_ bv115792089237316195423570985008687907853269984665640564039457584007913129639935 256) x58) (= (_ bv96 256) x152) (= (_ bv1 256) x5) (= (= x331 x58) x30)) (and (=> (not x102) x389) (=> (and x102 (= (_ bv0 256) x280)) x229))) x320))
(assert (= x133 (=> (and (= (bvugt x329 (_ bv0 256)) x281) (bvuge (_ bv115792089237316195423570985008687907853269984665640564039457584007913129639935 256) x65) (= x150 x139) (= (_ bv68 256) x123) (= x198 x393) (= (_ bv100173508806227604190404147538613040204472932894600276687804156538436924211200 256) x157) (bvule (_ bv0 256) x65) (= x248 x150) x19 (= (x307 (_ bv64 256) x139 (_ bv55 256)) x116) (= x359 (_ bv3715641950 256)) (= x329 (x179 x116)) (= x248 x291) (= x339 (x78 x294)) (= x19 (= x329 x65)) (= (_ bv68 256) x252) (= (x36 x139) x65) (bvule (_ bv1 256) x339)) (and (=> (and x281 (and (= (bvult (_ bv0 256) x232) x33) (bvule (_ bv0 256) x257) (= (x307 (_ bv64 256) x139 (_ bv55 256)) x53) (= (x179 x53) x232) (= (x36 x139) x257) (= x248 x221) x203 (bvuge (_ bv115792089237316195423570985008687907853269984665640564039457584007913129639935 256) x257) (= x203 (= x232 x257)))) (and (=> (not x33) x167) (=> (and (and (= x402 (= x344 x209)) (= x298 (x179 x53)) x402 (= x1 x248) (= x344 (x15 x139 (_ bv0 256))) (bvuge (_ bv115792089237316195423570985008687907853269984665640564039457584007913129639935 256) x172) x40 (bvule (_ bv1 256) x172) (bvule (_ bv1 256) x298) (bvule x344 (_ bv1461501637330902918203684832716283019655932542975 256)) (= x215 (_ bv0 256)) (= x37 (x234 (_ bv32 256) x53)) (= x85 (x307 (_ bv64 256) x209 (_ bv54 256))) (bvuge (_ bv115792089237316195423570985008687907853269984665640564039457584007913129639935 256) x95) (= (bvugt x295 (_ bv0 256)) x237) (bvuge x44 (_ bv1 256)) (= (_ bv0 256) x395) (= x95 (x36 x139)) (= x209 (x179 x37)) (bvule (_ bv1 256) x95) (= x248 x207) (= (= x298 x172) x40) (= (x179 x53) x44) (= x172 (x36 x139)) (bvuge (_ bv1461501637330902918203684832716283019655932542975 256) x209) (= x91 (bvadd x85 (_ bv5 256))) (= (x179 x91) x295) (= x308 (= x95 x44)) x308 (= x270 x248)) x33) (and (=> (and x237 (and (= x209 x96) (= (_ bv1 256) x336))) x242) (=> (not x237) x167))))) (=> (not x281) x320)))))
(assert (= x393 (x166 (x307 (_ bv64 256) x393 (_ bv53 256)))))
(assert (=> (bvule x393 (_ bv10000 256)) (= (x338 x393) (_ bv0 256))))
(assert (= x273 (and x296 (not x218))))
(assert (= (and x102 x314) x103))
(assert (x233 (_ bv3715641950 256)))
(assert (= x6 (or x259 x293)))
(assert (= (x166 (x307 (_ bv64 256) x393 (_ bv54 256))) x393))
(assert (= x59 (=> (and (and (= x235 x139) (and (and (and (= x39 (bvadd x350 (_ bv31 256))) (= x236 x138) (bvugt x100 x39) (bvule (_ bv1 256) x363) (= x363 (x78 x294)) (= (x131 x148) x348) (= (bvadd (_ bv4 256) x4) x350) (= x201 x348) (= (bvadd x90 x130) x214) (= x235 x148) (= (= x137 (_ bv0 256)) x283) (= (bvmul (_ bv32 256) x137) x90) (= x200 (bvmul (_ bv32 256) x137)) (= x138 (x370 x294)) (bvule x137 (_ bv18446744073709551615 256)) (= x118 (bvadd x200 (_ bv160 256))) (not (bvugt x214 x100)) (= x137 (x372 x350)) (= (_ bv3264840248 256) x195) (= (bvadd x350 (_ bv32 256)) x130)) (or (not x283) x283)) (= (_ bv0 256) x256))) (and (bvule (_ bv1 256) x84) (= x26 x112) (not (= x394 x64)) x57 (not (= x328 x394)) (bvule x384 (_ bv1461501637330902918203684832716283019655932542975 256)) (bvuge (_ bv115792089237316195423570985008687907853269984665640564039457584007913129639935 256) x32) x27 (not (= x64 x328)) (bvule (_ bv1 256) x79) (= x135 x253) x104 (bvule (_ bv1 256) x64) (bvuge x381 (_ bv1 256)) (bvule x84 (_ bv1461501637330902918203684832716283019655932542975 256)) (not (= x188 x394)) x191 (bvuge x254 (_ bv0 256)) (bvuge x174 (_ bv0 256)) (bvule (_ bv0 256) x343) (not (= x64 x112)) (bvule (_ bv1 256) x394) (not (= x188 x64)) (not (= x384 x112)) (not (= x79 x188)) (bvule x230 (_ bv115792089237316195423570985008687907853269984665640564039457584007913129639935 256)) (= x394 x70) (= x258 x294) (= (bvugt (x78 x112) (_ bv0 256)) x262) (= x154 x16) x62 (not (= x394 x79)) (bvuge x357 (_ bv1 256)) x183 (not (= x64 x384)) (= (bvult (_ bv0 256) (x78 x188)) x9) (bvule x112 (_ bv1461501637330902918203684832716283019655932542975 256)) (not (= x381 x384)) (bvuge x188 (_ bv1 256)) (bvule x254 (_ bv1461501637330902918203684832716283019655932542975 256)) (bvule x328 (_ bv1461501637330902918203684832716283019655932542975 256)) (bvuge x384 (_ bv1 256)) (bvule x381 (_ bv1461501637330902918203684832716283019655932542975 256)) x262 (= x57 x364) (not (= x384 x188)) (bvuge (_ bv1461501637330902918203684832716283019655932542975 256) x394) (bvule (_ bv0 256) x32) (not (= x294 x188)) (= x27 x353) x377 (bvuge x24 (_ bv0 256)) (= (bvugt (x78 x381) (_ bv0 256)) x80) (not (= x112 x79)) (not (= x394 x381)) (bvuge (_ bv1461501637330902918203684832716283019655932542975 256) x26) (bvuge (_ bv1461501637330902918203684832716283019655932542975 256) x294) (not (= x381 x294)) (bvuge x70 (_ bv1 256)) (not (= x384 x79)) (bvuge (_ bv1461501637330902918203684832716283019655932542975 256) x188) (not (= x328 x188)) (bvuge x258 (_ bv1 256)) x141 (bvuge x26 (_ bv1 256)) (not (= x112 x294)) (= (bvugt (x78 x64) (_ bv0 256)) x383) x80 x383 (bvule (_ bv1 256) x112) (bvule (_ bv0 256) x235) (not (= x294 x79)) (not (= x294 x394)) x371 (= x285 (bvugt (x78 x394) (_ bv0 256))) (bvuge (_ bv1461501637330902918203684832716283019655932542975 256) x357) (= x141 x287) (bvule x79 (_ bv1461501637330902918203684832716283019655932542975 256)) (not (= x112 x381)) (bvuge (_ bv1461501637330902918203684832716283019655932542975 256) x64) (bvule x400 (_ bv115792089237316195423570985008687907853269984665640564039457584007913129639935 256)) (not (= x381 x79)) (not (= x328 x381)) (bvuge (_ bv1461501637330902918203684832716283019655932542975 256) x70) (bvule (_ bv1 256) x328) (bvule (_ bv68 256) x100) (= x183 (bvult (_ bv0 256) (x78 x384))) (not (= x394 x384)) x154 (bvuge (_ bv1461501637330902918203684832716283019655932542975 256) x174) (bvule x38 (_ bv1461501637330902918203684832716283019655932542975 256)) (= x188 x84) (= (_ bv0 256) x61) (bvuge x192 (_ bv0 256)) (= (bvult (_ bv0 256) (x78 x328)) x191) (= (bvult (_ bv0 256) (x78 x294)) x377) (= x357 x294) (= x4 x145) (bvuge x38 (_ bv0 256)) (bvule x258 (_ bv1461501637330902918203684832716283019655932542975 256)) (= x231 x104) (= (bvult (_ bv0 256) (x78 x79)) x62) (bvule x24 (_ bv115792089237316195423570985008687907853269984665640564039457584007913129639935 256)) (not (= x294 x328)) (bvule (_ bv0 256) x230) (bvuge x330 (_ bv0 256)) (bvule x343 (_ bv4294967295 256)) (not (= x64 x381)) (not (= x188 x381)) (bvule x100 (_ bv57896044618658097711785492504343953926634992332820282019728792003956564819967 256)) (bvule x235 (_ bv1461501637330902918203684832716283019655932542975 256)) (bvule x330 (_ bv115792089237316195423570985008687907853269984665640564039457584007913129639935 256)) (not (= x294 x384)) (not (= x64 x294)) (bvuge x400 (_ bv0 256)) (not (= x112 x394)) x285 (not (= x112 x188)) (bvule x4 (_ bv18446744073709551615 256)) (not (= x328 x79)) (not (= x112 x328)) (not (= x384 x328)) x9 (= x371 x196) (= (x143 (_ bv4 256)) x4) (bvule x192 (_ bv115792089237316195423570985008687907853269984665640564039457584007913129639935 256)) x253 (not (= x64 x79)) (bvule (_ bv1 256) x294))) x110)))
(assert (= (and x206 x151) x199))
(assert (= (=> (and (= (_ bv32 256) x175) (= (x94 (_ bv128 256)) x347) (= x223 (bvadd x97 (_ bv32 256))) (= x97 (bvadd (_ bv32 256) x208)) (= x124 (bvult (_ bv0 256) x347))) (and (=> x124 x374) (=> (and (and (= (_ bv0 256) x71) (= x223 x204) (= x299 (_ bv160 256))) (not x124)) x190))) x290))
(assert (=> (bvuge (_ bv10000 256) x381) (= (x338 x381) (_ bv0 256))))
(assert (x233 (_ bv115792089237316195423570985008687907853269984665640564039457584007913129639935 256)))
(assert (not (x233 (x234 (_ bv32 256) x53))))
(assert (= (and x168 x33) x187))
(assert (= (x307 (_ bv64 256) x393 x327) (x338 (x307 (_ bv64 256) x393 x327))))
(assert (= (x338 (_ bv15618580431088591233166837470074867648797051771040287351653427469476205428736 256)) (_ bv0 256)))
(assert (x233 (_ bv340282366920938463463374607431768211455 256)))
(assert (= x161 (and (not x283) x66)))
(assert (= (or x376 x43) x92))
(assert (= (x269 (x307 (_ bv64 256) x209 (_ bv54 256))) (_ bv54 256)))
(assert (= (x166 (x234 (_ bv32 256) x63)) x63))
(assert (= (x338 (x307 (_ bv64 256) x393 (_ bv54 256))) (x307 (_ bv64 256) x393 (_ bv54 256))))
(assert (x233 (_ bv15618580431088591233166837470074867648797051771040287351653427469476205428736 256)))
(assert (= (or x6 x321) x74))
(assert (= (_ bv64 256) (x69 (x307 (_ bv64 256) x393 x327))))
(assert (=> (bvuge (_ bv10000 256) x148) (= (_ bv0 256) (x338 x148))))
(assert (=> (bvule x294 (_ bv10000 256)) (= (_ bv0 256) (x338 x294))))
(assert (= x380 (=> (and (= (bvadd (_ bv96 256) x396) x49) (= x60 (x140 x49)) (= x119 (not (bvugt x123 (_ bv128 256)))) (= x186 (bvadd (_ bv96 256) x18))) (and x119 (=> (= x111 (_ bv128 256)) x362)))))
(assert (=> (bvuge (_ bv10000 256) x384) (= (x338 x384) (_ bv0 256))))
(assert (= (x69 (x307 (_ bv64 256) x209 (_ bv54 256))) (_ bv64 256)))
(assert (= (_ bv64 256) (x69 (x307 (_ bv64 256) x393 (_ bv53 256)))))
(assert (not (x233 (x307 (_ bv64 256) x209 (_ bv54 256)))))
(assert (= (_ bv0 256) (x338 (_ bv4294967295 256))))
(assert (= (or (and (not x33) x168) x220) x376))
(assert (= x321 (and (not x173) x199)))
(assert (= (and x66 x283) x239))
(assert (= (or x239 x161) x206))
(assert (= (x69 (x234 (_ bv32 256) x53)) (_ bv32 256)))
(assert (= x190 (=> (and (= x169 x204) (= x83 (bvmul (_ bv32 256) x347)) (= x210 x299) (or (= x83 (_ bv32 256)) (= x83 (_ bv0 256))) (= x169 (bvadd x223 x83)) (= (bvmul x347 (_ bv32 256)) x48) (or (= (_ bv32 256) x48) (= (_ bv0 256) x48)) (bvuge (_ bv1 256) x347) (= (or (not (and (bvule (_ bv0 256) x42) (bvule x42 (_ bv1461501637330902918203684832716283019655932542975 256)))) (or (not (or (not (= (_ bv0 256) (x313 x42 x87))) (not (= (_ bv0 256) (x225 x42 x87))))) (not (= (_ bv0 256) (x50 x87))) (not (and (bvuge (_ bv115792089237316195423570985008687907853269984665640564039457584007913129639935 256) x87) (bvule (_ bv0 256) x87))))) x373) (= x210 (bvadd x48 (_ bv160 256))) (= x347 x71) (or (= x83 (_ bv0 256)) (= (_ bv32 256) x83)) (or (= (_ bv0 256) x48) (= (_ bv32 256) x48))) x373)))
(assert (=> (bvule x188 (_ bv10000 256)) (= (x338 x188) (_ bv0 256))))
(assert (=> (bvule x394 (_ bv10000 256)) (= (_ bv0 256) (x338 x394))))
(assert (= (_ bv0 256) (x338 (_ bv26959946667150639794667015087019630673637144422540572481103610249215 256))))
(assert (= (x166 (x307 (_ bv64 256) x393 x327)) x393))
(assert (bvugt (x307 (_ bv64 256) x393 (_ bv53 256)) (_ bv10000 256)))
(assert (= (_ bv0 256) (x338 (_ bv340282366920938463463374607431768211455 256))))
(assert (= (=> (and (= x336 (_ bv0 256)) (= x96 (_ bv0 256))) x242) x167))
(assert (=> (bvule x64 (_ bv10000 256)) (= (_ bv0 256) (x338 x64))))
(assert (= (x166 (x307 (_ bv64 256) x209 (_ bv54 256))) x209))
(assert (= x305 (and x206 (not x151))))
(assert (= x108 (or x120 x213)))
(assert (= (_ bv0 256) (x338 (_ bv18446744073709551615 256))))
(assert (not (x233 (x307 (_ bv64 256) x393 (_ bv53 256)))))
(assert (not (x233 (x307 (_ bv64 256) x393 x327))))
(assert (= (x338 (bvadd x13 x211)) (x338 x211)))
(assert (= (x338 x63) (x338 (bvadd x63 (_ bv1 256)))))
(assert (x233 (_ bv18446744073709551615 256)))
(assert (= x43 (and x187 x237)))
(assert (= (x234 (_ bv32 256) x53) (x338 (x234 (_ bv32 256) x53))))
(assert (bvult (_ bv10000 256) (x307 (_ bv64 256) x393 (_ bv54 256))))
(assert (= x369 (or x126 x142)))
(assert (= x110 (=> (= x151 (bvult (_ bv0 256) x137)) (and (=> (and (= x118 x208) (not x151)) x290) (=> (and x151 (and (= (= x177 x345) x278) (bvuge (_ bv18446744073709551615 256) x137) x278 (= (_ bv52 256) x128) (= (not (= (_ bv0 256) x345)) x173) (= (_ bv52 256) x255) (bvuge x177 (_ bv0 256)) (= (x50 x393) x177) (= (x179 x351) x345) (= x351 (x307 (_ bv64 256) x393 (_ bv53 256))) (bvuge (_ bv115792089237316195423570985008687907853269984665640564039457584007913129639935 256) x177) (bvuge (_ bv1461501637330902918203684832716283019655932542975 256) x393) (= x393 (x372 x130)) (bvule (_ bv1 256) x137))) (and (=> (and x173 (and (= x277 (bvadd x89 (bvneg (_ bv32 256)))) (= x319 (bvult (_ bv0 256) x123)) (= (bvadd (bvneg (_ bv15618580431088591233166837470074867648797051771040287351653427469476205428736 256)) x266) x184) (= x2 (bvand x22 (_ bv1461501637330902918203684832716283019655932542975 256))) (= (bvand x197 (_ bv26959946667150639794667015087019630673637144422540572481103610249215 256)) x266) (= x352 (x78 x2)) (= (bvadd (_ bv96 256) x216) x18) (= x396 (bvadd (_ bv32 256) x118)) (= (bvadd (_ bv36 256) x118) x29) (bvule (_ bv1 256) x352) (= x89 (bvadd x216 (bvneg x118))) (= (x34 x396) x197) (= true x41) (= (bvadd (_ bv32 256) x29) x349) (= (x45 x118) x123) (= x22 (x179 (_ bv62 256))) (= (bvadd x29 (_ bv64 256)) x216))) (and (=> (and (= (_ bv0 256) x111) (not x319)) x362) (=> (and (and (= (bvugt x123 (_ bv32 256)) x218) (= x340 (x140 x396))) x319) (and (=> (and x218 (and (= x182 (bvadd (_ bv32 256) x18)) (= (x140 x54) x86) (= (bvugt x123 (_ bv64 256)) x12) (= (bvadd x396 (_ bv32 256)) x54))) (and (=> (and (= (_ bv64 256) x111) (not x12)) x362) (=> (and x12 (and (= (bvult (_ bv96 256) x123) x335) (= (bvadd x396 (_ bv64 256)) x306) (= x153 (x140 x306)) (= (bvadd (_ bv64 256) x18) x55))) (and (=> (and (= x111 (_ bv96 256)) (not x335)) x362) (=> x335 x380))))) (=> (and (= x111 (_ bv32 256)) (not x218)) x362))))) (=> (and (and (= x356 x118) (= x67 (_ bv0 256))) (not x173)) x205)))))))
(assert (= (x166 (x307 (_ bv64 256) x139 (_ bv55 256))) x139))
(assert x171)
(assert (= (x269 (x307 (_ bv64 256) x393 (_ bv53 256))) (_ bv53 256)))
(assert (= (=> (and (= (_ bv1 256) x67) (= x356 x18)) x205) x332))
(assert (= x47 (and x314 (not x102))))
(assert (= (x338 (x307 (_ bv64 256) x139 (_ bv55 256))) (x307 (_ bv64 256) x139 (_ bv55 256))))
(assert x368)
(assert (= x160 (and x218 x296)))
(assert (= (or x165 x25) x14))
(assert (= x53 (x166 (x234 (_ bv32 256) x53))))
(assert (= (and x92 x264) x142))
(assert (=> (bvuge (_ bv10000 256) x79) (= (_ bv0 256) (x338 x79))))
(assert x361)
(assert (= (x69 (x307 (_ bv64 256) x393 (_ bv54 256))) (_ bv64 256)))
(assert (= x282 (or x74 x305)))
(assert (= x185 (and (not x12) x160)))
(assert (= x132 x320))
(assert (bvult x88 (_ bv340282366920938463463374607431768211455 256)))
(assert (= (and x238 x335) x189))
(assert (= (_ bv0 256) (x338 (_ bv57896044618658097711785492504343953926634992332820282019728792003956564819967 256))))
(assert (= (and (not x292) x11) x213))
(assert (= (_ bv0 256) (x338 (_ bv3264840248 256))))
(assert (= x165 (and x124 x282)))
(assert (= (and x11 x292) x120))
(assert (=> (bvuge (_ bv10000 256) x139) (= (_ bv0 256) (x338 x139))))
(assert (= x168 (and x281 x108)))
(assert (=> (bvuge (_ bv10000 256) x2) (= (_ bv0 256) (x338 x2))))
(assert (= (and (not x124) x282) x25))
(assert (= x362 (=> (and (or (not x292) (and (= x76 (bvadd x123 x18)) x292)) (= (bvugt x111 x123) x292)) x133)))
(assert (= x392 (and (not x319) x77)))
(assert (not x59))
(assert (bvult (_ bv10000 256) (x307 (_ bv64 256) x209 (_ bv54 256))))
(assert (= (x338 (_ bv115792089237316195423570985008687907853269984665640564039457584007913129639935 256)) (_ bv0 256)))
(assert (= x327 (x269 (x307 (_ bv64 256) x393 x327))))
(assert (= (x69 (x307 (_ bv64 256) x139 (_ bv55 256))) (_ bv64 256)))
(assert (bvult (_ bv10000 256) (x234 (_ bv32 256) x53)))
(check-sat)
(exit)
